c File: rg50_0.3.col
c 
c This is a randomly generated graph G(n, p) where: 
c n (num vertices): 50
c p (edge probability): 0.3
c 
c Graph Properties: 
c Order: 50
c Size: 378
c Density: 0.30857143
c Maximum Degree: 22
c Minimum Degree: 8
c Average Degree: 15.12
c 
p edge 50 378
e 1 3
e 1 8
e 1 12
e 1 15
e 1 17
e 1 18
e 1 20
e 1 31
e 1 32
e 1 37
e 1 39
e 1 44
e 1 48
e 2 4
e 2 12
e 2 14
e 2 15
e 2 18
e 2 21
e 2 22
e 2 27
e 2 28
e 2 34
e 2 35
e 2 41
e 2 42
e 2 44
e 2 45
e 2 46
e 2 47
e 3 4
e 3 5
e 3 8
e 3 9
e 3 10
e 3 12
e 3 15
e 3 19
e 3 21
e 3 23
e 3 24
e 3 25
e 3 28
e 3 29
e 3 30
e 3 40
e 3 41
e 3 46
e 3 49
e 3 50
e 4 7
e 4 14
e 4 17
e 4 19
e 4 20
e 4 22
e 4 25
e 4 27
e 4 30
e 4 32
e 4 41
e 4 42
e 4 48
e 5 11
e 5 12
e 5 16
e 5 20
e 5 21
e 5 22
e 5 24
e 5 25
e 5 33
e 5 37
e 5 39
e 5 42
e 5 43
e 5 45
e 6 9
e 6 12
e 6 15
e 6 19
e 6 26
e 6 29
e 6 35
e 6 36
e 6 37
e 6 40
e 6 41
e 6 44
e 6 46
e 6 48
e 6 49
e 6 50
e 7 10
e 7 15
e 7 16
e 7 17
e 7 18
e 7 20
e 7 21
e 7 23
e 7 28
e 7 35
e 7 37
e 7 40
e 8 13
e 8 15
e 8 17
e 8 19
e 8 22
e 8 30
e 8 41
e 8 43
e 8 49
e 8 50
e 9 15
e 9 17
e 9 21
e 9 23
e 9 24
e 9 27
e 9 35
e 9 39
e 9 42
e 9 43
e 9 47
e 9 48
e 9 49
e 9 50
e 10 11
e 10 13
e 10 18
e 10 22
e 10 28
e 10 37
e 11 13
e 11 14
e 11 24
e 11 28
e 11 31
e 11 32
e 11 35
e 11 38
e 11 40
e 11 41
e 11 43
e 11 44
e 11 46
e 12 23
e 12 31
e 12 33
e 12 35
e 12 36
e 12 41
e 12 43
e 12 45
e 12 46
e 12 47
e 13 16
e 13 17
e 13 18
e 13 21
e 13 22
e 13 25
e 13 35
e 13 39
e 13 40
e 13 48
e 13 49
e 13 50
e 14 17
e 14 20
e 14 25
e 14 26
e 14 27
e 14 29
e 14 30
e 14 34
e 14 35
e 14 37
e 14 38
e 14 39
e 14 40
e 14 41
e 14 47
e 14 49
e 15 18
e 15 20
e 15 21
e 15 29
e 15 32
e 15 33
e 15 34
e 15 37
e 15 41
e 15 44
e 15 46
e 15 47
e 15 48
e 16 19
e 16 21
e 16 22
e 16 30
e 16 35
e 16 42
e 16 46
e 16 48
e 17 21
e 17 31
e 17 32
e 17 33
e 17 34
e 17 43
e 17 46
e 17 50
e 18 21
e 18 27
e 18 35
e 18 38
e 18 39
e 18 40
e 18 45
e 18 46
e 19 20
e 19 23
e 19 27
e 19 29
e 19 30
e 19 34
e 19 35
e 19 38
e 19 43
e 19 44
e 19 46
e 19 49
e 20 23
e 20 24
e 20 26
e 20 30
e 20 31
e 20 38
e 20 39
e 20 41
e 20 42
e 21 23
e 21 26
e 21 27
e 21 31
e 21 35
e 21 38
e 21 39
e 21 45
e 21 47
e 21 48
e 22 26
e 22 27
e 22 28
e 22 30
e 22 31
e 22 34
e 22 35
e 22 36
e 22 41
e 22 45
e 22 48
e 22 49
e 23 29
e 23 34
e 23 35
e 23 38
e 23 41
e 23 48
e 24 34
e 24 36
e 24 37
e 24 41
e 24 43
e 24 49
e 24 50
e 25 28
e 25 33
e 25 48
e 26 31
e 26 34
e 26 35
e 26 42
e 26 43
e 26 44
e 27 30
e 27 34
e 27 38
e 27 41
e 27 43
e 27 44
e 27 47
e 27 50
e 28 31
e 28 35
e 28 37
e 28 39
e 28 40
e 28 43
e 28 47
e 28 49
e 29 31
e 29 32
e 29 33
e 29 34
e 29 38
e 29 46
e 29 50
e 30 36
e 30 40
e 31 36
e 31 38
e 31 40
e 31 42
e 31 43
e 31 45
e 31 47
e 31 48
e 32 40
e 32 41
e 32 44
e 32 45
e 32 46
e 32 48
e 33 34
e 33 36
e 33 38
e 33 39
e 33 48
e 33 49
e 34 36
e 34 38
e 34 43
e 34 45
e 34 48
e 35 36
e 35 37
e 35 38
e 35 42
e 35 43
e 35 48
e 36 37
e 36 40
e 36 42
e 36 43
e 36 45
e 36 48
e 36 50
e 37 40
e 37 44
e 37 50
e 38 39
e 38 40
e 38 42
e 38 44
e 38 46
e 38 48
e 38 49
e 39 41
e 39 42
e 39 47
e 40 43
e 40 45
e 40 46
e 40 48
e 40 50
e 41 47
e 41 48
e 41 49
e 42 47
e 43 48
e 43 50
e 44 45
e 44 50
e 49 50
